NAME: S051D4_25
COMMENT: 1673.9
VEHICLE: 27
TIME: 345.3641
DIMENSION: 51
CAPACITY: 160
DELIVERY_SECTION
0 0 0
1 1 40
2 1 1.6
3 1 1.4
4 2 40
5 2 1.6
6 2 1.4
7 3 16
8 3 8
9 3 1
10 4 40
11 4 40
12 4 40
13 4 16
14 4 1.6
15 4 1.6
16 4 1.6
17 4 1.6
18 4 0.6
19 5 16
20 5 16
21 5 1.6
22 5 1.4
23 6 40
24 6 40
25 6 8
26 6 1
27 7 16
28 7 8
29 7 1.6
30 7 1.4
31 8 40
32 8 40
33 8 40
34 8 8
35 8 1.6
36 8 1.4
37 9 16
38 9 1.6
39 9 1.6
40 9 1.6
41 9 1.6
42 9 0.6
43 10 40
44 10 40
45 10 40
46 10 1.6
47 10 0.4
48 11 16
49 11 8
50 11 1.6
51 11 1.6
52 11 1.6
53 11 1.2
54 12 40
55 12 40
56 12 8
57 12 1.6
58 12 1.6
59 12 1.6
60 12 1.2
61 13 16
62 13 8
63 13 1
64 14 40
65 14 40
66 14 40
67 14 16
68 14 1.6
69 14 1.4
70 15 16
71 15 16
72 15 1.6
73 15 0.4
74 16 40
75 16 1.6
76 16 0.4
77 17 40
78 17 1.6
79 17 1.6
80 17 1.6
81 17 0.2
82 18 40
83 18 40
84 18 40
85 18 16
86 18 1.6
87 18 1.6
88 18 1.6
89 18 1.6
90 18 0.6
91 19 40
92 20 40
93 20 1.6
94 20 1.6
95 20 1.6
96 20 0.2
97 21 40
98 21 16
99 21 8
100 21 1.6
101 21 1.6
102 21 1.6
103 21 0.2
104 22 40
105 22 40
106 22 40
107 22 16
108 22 1
109 23 40
110 23 8
111 24 40
112 24 40
113 24 8
114 24 1.6
115 24 1.6
116 24 1.6
117 24 0.2
118 25 40
119 25 40
120 25 8
121 25 1.6
122 25 1.6
123 25 1.6
124 25 1.2
125 26 40
126 26 40
127 26 40
128 26 1.6
129 26 1.6
130 26 0.8
131 27 40
132 27 16
133 27 1.6
134 27 0.4
135 28 40
136 28 40
137 28 40
138 28 1.6
139 28 1.6
140 28 1.6
141 28 1.6
142 28 0.6
143 29 40
144 29 40
145 29 16
146 29 16
147 29 1.6
148 29 1.6
149 29 1.6
150 29 1.2
151 30 40
152 30 40
153 30 16
154 30 8
155 30 1.6
156 30 1.6
157 30 0.8
158 31 40
159 31 16
160 31 8
161 31 1.6
162 31 1.6
163 31 1.6
164 31 1.2
165 32 40
166 32 40
167 32 40
168 32 16
169 32 1.6
170 32 1.6
171 32 1.6
172 32 1.2
173 33 40
174 33 40
175 33 40
176 33 16
177 34 40
178 34 40
179 34 8
180 34 1.6
181 34 1.6
182 34 0.8
183 35 40
184 35 40
185 35 1.6
186 35 1.6
187 35 0.8
188 36 40
189 36 40
190 36 40
191 36 16
192 36 1.6
193 36 1.6
194 36 1.6
195 36 0.2
196 37 40
197 37 40
198 37 40
199 37 16
200 37 1.6
201 37 1.6
202 37 1.6
203 37 1.6
204 37 0.6
205 38 40
206 38 16
207 38 16
208 38 1.6
209 38 1.6
210 38 1.6
211 38 0.2
212 39 40
213 39 40
214 39 16
215 39 1.6
216 39 1.6
217 39 0.8
218 40 40
219 40 40
220 40 40
221 40 1.6
222 40 1.6
223 40 1.6
224 40 1.6
225 40 0.6
226 41 40
227 41 40
228 41 40
229 41 16
230 42 40
231 42 16
232 42 1.6
233 42 1.6
234 42 1.6
235 42 1.6
236 42 0.6
237 43 40
238 43 40
239 43 16
240 43 16
241 43 1.6
242 43 1.6
243 43 1.6
244 43 0.2
245 44 40
246 44 40
247 44 16
248 44 8
249 44 1.6
250 44 0.4
251 45 40
252 45 40
253 45 16
254 45 16
255 46 40
256 46 8
257 46 1.6
258 46 1.6
259 46 0.8
260 47 40
261 47 40
262 47 40
263 47 8
264 47 1.6
265 47 1.4
266 48 40
267 48 40
268 48 1
269 49 40
270 49 16
271 49 8
272 49 1.6
273 49 1.6
274 49 1.6
275 49 1.2
276 50 40
277 50 1.6
278 50 1.4
PICKUP_SECTION
NODE_SECTION
30 40

37 52

49 49

52 64

20 26

40 30

21 47

17 63

31 62

52 33

51 21

42 41

31 32

 5 25

12 42

36 16

52 41

27 23

17 33

13 13

57 58

62 42

42 57

16 57
 
8 52

 7 38

27 68

30 48

43 67

58 48

58 27

37 69

38 46

46 10

61 33

62 63

63 69

32 22

45 35

59 15

 5  6

10 17

21 10

 5 64

30 15

39 10

32 39

25 32

25 55

48 28

56 37
DISTANCE_SECTION
DEPOT_SECTION
0
EOF